(set-logic QF_UF)
(set-info :status unsat)
(declare-sort Term 0)
(declare-fun a () Term)
(declare-fun b () Term)
(declare-fun d () Term)
(declare-fun f (Term) Term)
(declare-fun p (Term Term) Bool)
(assert (and (and (= b d) (= (f b) d)) (and (= (f d) a) (and (p a a) (not (p a b))))))
(check-sat)
(exit)